p edge 90 768
e 1 2
e 1 3
e 1 6
e 1 10
e 1 16
e 1 20
e 1 25
e 1 29
e 1 31
e 1 42
e 1 47
e 1 48
e 1 54
e 1 55
e 1 60
e 1 63
e 1 66
e 1 76
e 1 85
e 1 88
e 1 90
e 2 4
e 2 5
e 2 12
e 2 13
e 2 18
e 2 22
e 2 32
e 2 34
e 2 35
e 2 44
e 2 45
e 2 53
e 2 58
e 2 61
e 2 64
e 2 82
e 2 87
e 3 7
e 3 10
e 3 16
e 3 26
e 3 31
e 3 36
e 3 38
e 3 39
e 3 44
e 3 49
e 3 52
e 3 55
e 3 62
e 3 65
e 3 75
e 3 77
e 3 86
e 4 12
e 4 14
e 4 17
e 4 19
e 4 24
e 4 27
e 4 35
e 4 41
e 4 42
e 4 51
e 4 52
e 4 54
e 4 59
e 4 67
e 4 77
e 4 87
e 5 13
e 5 19
e 5 25
e 5 30
e 5 32
e 5 36
e 5 42
e 5 49
e 5 53
e 5 55
e 5 56
e 5 57
e 5 62
e 5 63
e 5 64
e 5 69
e 5 75
e 5 76
e 5 79
e 6 17
e 6 22
e 6 24
e 6 30
e 6 32
e 6 37
e 6 52
e 6 84
e 6 85
e 6 89
e 7 11
e 7 18
e 7 24
e 7 32
e 7 37
e 7 39
e 7 44
e 7 49
e 7 63
e 7 67
e 7 68
e 7 72
e 7 76
e 7 81
e 7 85
e 8 12
e 8 18
e 8 19
e 8 22
e 8 24
e 8 35
e 8 38
e 8 40
e 8 45
e 8 64
e 8 67
e 8 70
e 8 82
e 9 10
e 9 14
e 9 15
e 9 16
e 9 23
e 9 26
e 9 53
e 9 54
e 9 68
e 9 73
e 9 79
e 9 82
e 9 85
e 9 87
e 9 88
e 9 89
e 10 16
e 10 19
e 10 36
e 10 40
e 10 49
e 10 52
e 10 53
e 10 61
e 10 62
e 10 64
e 10 73
e 10 85
e 10 90
e 11 12
e 11 19
e 11 21
e 11 22
e 11 28
e 11 29
e 11 30
e 11 32
e 11 33
e 11 51
e 11 54
e 11 57
e 11 62
e 11 66
e 11 68
e 11 89
e 12 13
e 12 35
e 12 42
e 12 43
e 12 45
e 12 69
e 12 80
e 12 82
e 12 87
e 12 88
e 12 89
e 12 90
e 13 22
e 13 24
e 13 30
e 13 34
e 13 36
e 13 37
e 13 40
e 13 41
e 13 49
e 13 52
e 13 59
e 13 67
e 13 73
e 13 81
e 13 83
e 13 85
e 13 88
e 14 18
e 14 21
e 14 25
e 14 52
e 14 55
e 14 66
e 14 68
e 14 70
e 14 73
e 14 78
e 14 88
e 15 17
e 15 22
e 15 24
e 15 28
e 15 29
e 15 30
e 15 33
e 15 34
e 15 45
e 15 48
e 15 58
e 15 62
e 15 68
e 15 73
e 15 81
e 15 82
e 15 83
e 15 89
e 16 17
e 16 20
e 16 25
e 16 32
e 16 33
e 16 36
e 16 37
e 16 40
e 16 41
e 16 58
e 16 66
e 16 70
e 16 76
e 17 20
e 17 32
e 17 40
e 17 41
e 17 43
e 17 47
e 17 48
e 17 50
e 17 55
e 17 58
e 17 61
e 17 66
e 17 77
e 17 82
e 17 84
e 17 87
e 18 26
e 18 28
e 18 30
e 18 36
e 18 38
e 18 46
e 18 47
e 18 49
e 18 52
e 18 58
e 18 59
e 18 62
e 18 69
e 18 70
e 18 84
e 18 88
e 19 25
e 19 42
e 19 70
e 19 73
e 19 81
e 19 90
e 20 21
e 20 22
e 20 27
e 20 28
e 20 29
e 20 31
e 20 32
e 20 35
e 20 36
e 20 42
e 20 45
e 20 47
e 20 53
e 20 68
e 20 82
e 20 86
e 21 23
e 21 25
e 21 28
e 21 33
e 21 34
e 21 38
e 21 41
e 21 43
e 21 46
e 21 47
e 21 49
e 21 50
e 21 56
e 21 58
e 21 64
e 21 69
e 21 72
e 21 87
e 21 88
e 22 25
e 22 30
e 22 31
e 22 36
e 22 41
e 22 44
e 22 47
e 22 57
e 22 58
e 22 66
e 22 70
e 22 80
e 22 83
e 22 84
e 22 88
e 23 27
e 23 32
e 23 43
e 23 45
e 23 49
e 23 52
e 23 54
e 23 58
e 23 60
e 23 65
e 23 69
e 23 70
e 23 86
e 23 88
e 24 41
e 24 42
e 24 47
e 24 48
e 24 51
e 24 59
e 24 90
e 25 35
e 25 36
e 25 37
e 25 42
e 25 47
e 25 48
e 25 49
e 25 54
e 25 67
e 25 69
e 25 74
e 25 75
e 25 88
e 26 29
e 26 37
e 26 41
e 26 44
e 26 48
e 26 52
e 26 55
e 26 58
e 26 62
e 26 65
e 26 81
e 26 84
e 27 33
e 27 34
e 27 40
e 27 44
e 27 47
e 27 50
e 27 51
e 27 54
e 27 56
e 27 64
e 27 72
e 27 76
e 27 77
e 27 89
e 28 29
e 28 31
e 28 32
e 28 33
e 28 37
e 28 38
e 28 43
e 28 44
e 28 47
e 28 50
e 28 67
e 28 74
e 28 79
e 28 82
e 28 84
e 28 85
e 29 30
e 29 33
e 29 45
e 29 55
e 29 57
e 29 62
e 29 65
e 29 69
e 29 73
e 30 38
e 30 54
e 30 56
e 30 57
e 30 66
e 30 75
e 30 78
e 30 87
e 30 88
e 31 46
e 31 49
e 31 50
e 31 53
e 31 59
e 31 66
e 31 83
e 32 37
e 32 40
e 32 50
e 32 51
e 32 57
e 32 59
e 32 63
e 32 69
e 32 77
e 32 79
e 32 86
e 32 88
e 33 35
e 33 39
e 33 43
e 33 45
e 33 47
e 33 58
e 33 61
e 33 64
e 33 67
e 33 70
e 33 88
e 33 89
e 34 41
e 34 48
e 34 50
e 34 54
e 34 55
e 34 57
e 34 62
e 34 68
e 34 71
e 34 73
e 34 74
e 34 84
e 34 90
e 35 38
e 35 39
e 35 40
e 35 60
e 35 63
e 35 65
e 35 66
e 35 68
e 35 71
e 35 78
e 35 79
e 35 85
e 35 89
e 36 37
e 36 43
e 36 44
e 36 47
e 36 49
e 36 77
e 37 38
e 37 45
e 37 50
e 37 52
e 37 53
e 37 56
e 37 66
e 37 71
e 37 75
e 37 77
e 37 82
e 37 85
e 37 90
e 38 39
e 38 43
e 38 46
e 38 52
e 38 53
e 38 57
e 38 62
e 38 76
e 38 77
e 38 89
e 39 40
e 39 62
e 39 70
e 39 72
e 39 78
e 39 82
e 39 90
e 40 42
e 40 44
e 40 48
e 40 55
e 40 58
e 40 78
e 40 80
e 40 86
e 40 88
e 41 43
e 41 49
e 41 50
e 41 54
e 41 55
e 41 59
e 41 63
e 41 77
e 41 78
e 41 79
e 41 85
e 41 90
e 42 48
e 42 63
e 42 69
e 42 74
e 42 78
e 42 80
e 42 89
e 43 50
e 43 51
e 43 56
e 43 61
e 43 85
e 43 87
e 44 51
e 44 52
e 44 59
e 44 61
e 44 64
e 44 69
e 44 76
e 44 81
e 45 52
e 45 60
e 45 61
e 45 63
e 45 74
e 45 75
e 45 76
e 45 78
e 45 84
e 45 85
e 46 47
e 46 51
e 46 52
e 46 63
e 46 66
e 46 71
e 46 78
e 46 79
e 46 80
e 46 82
e 46 83
e 47 48
e 47 61
e 47 65
e 47 66
e 47 76
e 47 80
e 47 83
e 47 85
e 47 86
e 47 87
e 48 56
e 48 58
e 48 64
e 48 68
e 48 71
e 48 72
e 48 78
e 48 86
e 49 53
e 49 55
e 49 65
e 49 72
e 49 82
e 49 83
e 50 56
e 50 57
e 50 60
e 50 64
e 50 68
e 50 69
e 50 70
e 51 52
e 51 57
e 51 58
e 51 60
e 51 65
e 51 67
e 51 70
e 51 75
e 51 81
e 51 84
e 52 61
e 52 69
e 52 73
e 52 76
e 52 78
e 52 85
e 52 86
e 53 54
e 53 58
e 53 59
e 53 68
e 53 69
e 53 76
e 53 87
e 53 88
e 54 64
e 54 69
e 54 73
e 54 74
e 54 80
e 54 86
e 55 56
e 55 64
e 55 69
e 55 74
e 55 86
e 56 64
e 56 65
e 56 70
e 56 71
e 56 80
e 57 58
e 57 59
e 57 71
e 57 73
e 57 77
e 57 81
e 57 84
e 58 59
e 58 64
e 58 70
e 58 73
e 58 74
e 58 76
e 58 77
e 59 68
e 59 72
e 59 74
e 59 75
e 59 80
e 59 81
e 59 88
e 60 73
e 60 75
e 60 76
e 60 87
e 60 90
e 61 62
e 61 73
e 61 76
e 61 78
e 61 82
e 61 84
e 61 86
e 62 67
e 62 71
e 62 73
e 62 79
e 62 80
e 63 76
e 63 86
e 63 88
e 64 68
e 64 70
e 64 75
e 64 87
e 65 66
e 65 69
e 65 72
e 65 73
e 65 77
e 65 83
e 66 67
e 66 68
e 66 73
e 66 88
e 67 69
e 67 77
e 67 90
e 68 82
e 68 84
e 68 85
e 68 87
e 69 71
e 69 73
e 69 76
e 69 83
e 69 84
e 69 86
e 69 88
e 69 90
e 70 74
e 70 77
e 70 82
e 70 83
e 70 90
e 71 73
e 71 84
e 71 85
e 71 88
e 71 89
e 72 74
e 72 75
e 72 79
e 72 84
e 74 75
e 74 76
e 74 86
e 75 76
e 75 78
e 75 82
e 75 86
e 76 84
e 76 86
e 76 89
e 76 90
e 77 81
e 77 88
e 78 79
e 78 81
e 79 80
e 79 81
e 79 83
e 79 87
e 80 85
e 80 87
e 81 82
e 81 88
e 83 85
e 83 86
e 84 85
e 84 87
e 85 86
e 86 90
e 87 90